p tw 256 704
1 33
2 34
3 35
4 36
5 37
6 38
7 39
8 40
9 41
10 42
11 43
12 44
13 45
14 46
15 47
16 48
17 49
18 50
19 51
20 52
21 53
22 54
23 55
24 56
25 57
26 58
27 59
28 60
29 61
30 62
31 63
32 64
33 73
33 74
33 75
33 76
34 81
34 131
34 133
34 134
35 69
35 70
35 71
35 72
36 66
36 78
36 109
36 111
37 73
37 83
37 87
37 88
38 117
38 120
38 121
38 122
39 133
39 138
39 140
39 141
40 118
40 124
40 135
40 137
41 83
41 84
41 85
41 86
42 94
42 99
42 101
42 102
43 93
43 96
43 97
43 98
44 65
44 66
44 67
44 68
45 70
45 123
45 126
45 127
46 89
46 90
46 91
46 92
47 77
47 80
47 81
47 82
48 71
48 104
48 142
48 144
49 90
49 117
49 118
49 119
50 87
50 113
50 135
50 136
51 67
51 121
51 138
51 139
52 101
52 123
52 124
52 125
53 80
53 96
53 99
53 100
54 126
54 140
54 142
54 143
55 74
55 106
55 109
55 110
56 89
56 112
56 115
56 116
57 65
57 93
57 94
57 95
58 75
58 112
58 113
58 114
59 91
59 120
59 128
59 130
60 103
60 115
60 128
60 129
61 97
61 103
61 104
61 105
62 84
62 106
62 107
62 108
63 69
63 77
63 78
63 79
64 85
64 107
64 131
64 132
65 66
65 67
65 68
65 93
65 94
65 95
66 67
66 68
66 78
66 109
66 111
67 68
67 121
67 138
67 139
68 145
68 146
68 147
68 148
69 70
69 71
69 72
69 77
69 78
69 79
70 71
70 72
70 123
70 126
70 127
71 72
71 104
71 142
71 144
72 149
72 150
72 151
72 152
73 74
73 75
73 76
73 83
73 87
73 88
74 75
74 76
74 106
74 109
74 110
75 76
75 112
75 113
75 114
76 153
76 154
76 155
76 156
77 78
77 79
77 80
77 81
77 82
78 79
78 109
78 111
79 149
79 157
79 158
79 159
80 81
80 82
80 96
80 99
80 100
81 82
81 131
81 133
81 134
82 157
82 160
82 161
82 162
83 84
83 85
83 86
83 87
83 88
84 85
84 86
84 106
84 107
84 108
85 86
85 107
85 131
85 132
86 163
86 164
86 165
86 166
87 88
87 113
87 135
87 136
88 153
88 163
88 167
88 168
89 90
89 91
89 92
89 112
89 115
89 116
90 91
90 92
90 117
90 118
90 119
91 92
91 120
91 128
91 130
92 169
92 170
92 171
92 172
93 94
93 95
93 96
93 97
93 98
94 95
94 99
94 101
94 102
95 145
95 173
95 174
95 175
96 97
96 98
96 99
96 100
97 98
97 103
97 104
97 105
98 173
98 176
98 177
98 178
99 100
99 101
99 102
100 160
100 176
100 179
100 180
101 102
101 123
101 124
101 125
102 174
102 179
102 181
102 182
103 104
103 105
103 115
103 128
103 129
104 105
104 142
104 144
105 177
105 183
105 184
105 185
106 107
106 108
106 109
106 110
107 108
107 131
107 132
108 164
108 186
108 187
108 188
109 110
109 111
110 154
110 186
110 189
110 190
111 146
111 158
111 189
111 191
112 113
112 114
112 115
112 116
113 114
113 135
113 136
114 155
114 192
114 193
114 194
115 116
115 128
115 129
116 169
116 192
116 195
116 196
117 118
117 119
117 120
117 121
117 122
118 119
118 124
118 135
118 137
119 170
119 197
119 198
119 199
120 121
120 122
120 128
120 130
121 122
121 138
121 139
122 197
122 200
122 201
122 202
123 124
123 125
123 126
123 127
124 125
124 135
124 137
125 181
125 203
125 204
125 205
126 127
126 140
126 142
126 143
127 150
127 203
127 206
127 207
128 129
128 130
129 183
129 195
129 208
129 209
130 171
130 200
130 208
130 210
131 132
131 133
131 134
132 165
132 187
132 211
132 212
133 134
133 138
133 140
133 141
134 161
134 211
134 213
134 214
135 136
135 137
136 167
136 193
136 215
136 216
137 198
137 204
137 215
137 217
138 139
138 140
138 141
139 147
139 201
139 218
139 219
140 141
140 142
140 143
141 213
141 218
141 220
141 221
142 143
142 144
143 206
143 220
143 222
143 223
144 151
144 184
144 222
144 224
145 146
145 147
145 148
145 173
145 174
145 175
146 147
146 148
146 158
146 189
146 191
147 148
147 201
147 218
147 219
148 245
149 150
149 151
149 152
149 157
149 158
149 159
150 151
150 152
150 203
150 206
150 207
151 152
151 184
151 222
151 224
152 254
153 154
153 155
153 156
153 163
153 167
153 168
154 155
154 156
154 186
154 189
154 190
155 156
155 192
155 193
155 194
156 256
157 158
157 159
157 160
157 161
157 162
158 159
158 189
158 191
159 226
160 161
160 162
160 176
160 179
160 180
161 162
161 211
161 213
161 214
162 242
163 164
163 165
163 166
163 167
163 168
164 165
164 166
164 186
164 187
164 188
165 166
165 187
165 211
165 212
166 248
167 168
167 193
167 215
167 216
168 252
169 170
169 171
169 172
169 192
169 195
169 196
170 171
170 172
170 197
170 198
170 199
171 172
171 200
171 208
171 210
172 243
173 174
173 175
173 176
173 177
173 178
174 175
174 179
174 181
174 182
175 232
176 177
176 178
176 179
176 180
177 178
177 183
177 184
177 185
178 246
179 180
179 181
179 182
180 236
181 182
181 203
181 204
181 205
182 247
183 184
183 185
183 195
183 208
183 209
184 185
184 222
184 224
185 228
186 187
186 188
186 189
186 190
187 188
187 211
187 212
188 227
189 190
189 191
190 234
191 253
192 193
192 194
192 195
192 196
193 194
193 215
193 216
194 231
195 196
195 208
195 209
196 233
197 198
197 199
197 200
197 201
197 202
198 199
198 204
198 215
198 217
199 240
200 201
200 202
200 208
200 210
201 202
201 218
201 219
202 251
203 204
203 205
203 206
203 207
204 205
204 215
204 217
205 237
206 207
206 220
206 222
206 223
207 244
208 209
208 210
209 229
210 230
211 212
211 213
211 214
212 225
213 214
213 218
213 220
213 221
214 255
215 216
215 217
216 239
217 249
218 219
218 220
218 221
219 238
220 221
220 222
220 223
221 250
222 223
222 224
223 235
224 241
